750
500
350
349
349
347
347
347
347
346
346
346
346
346
345
344
344
343
343
342
342
341
341
341
340
340
340
340
340
340
339
339
339
338
338
338
338
338
338
337
337
336
335
335
335
335
335
334
334
334
334
333
333
333
332
331
331
331
331
330
330
330
330
329
329
329
328
328
328
326
325
325
325
325
324
323
323
323
323
323
323
322
322
322
321
321
321
321
321
320
319
319
319
319
318
318
318
317
317
317
316
316
316
316
315
315
315
314
314
314
314
314
313
313
313
313
312
312
312
311
311
311
311
311
311
310
310
310
309
309
309
308
307
306
305
304
304
304
303
303
303
303
303
302
302
302
301
301
301
300
300
299
298
298
298
298
297
296
296
296
296
295
294
294
293
291
291
291
290
289
289
288
288
288
288
287
287
287
286
286
286
284
284
284
284
284
282
282
281
281
281
281
281
281
279
279
279
279
278
278
277
277
277
277
277
276
276
276
276
274
274
274
274
274
273
273
273
273
272
270
270
269
269
269
269
268
268
268
268
267
267
266
266
265
265
265
265
265
264
264
264
264
264
264
263
263
262
262
262
261
261
261
261
260
260
259
259
258
257
257
256
255
255
254
254
254
254
254
254
253
253
253
253
253
251
251
251
251
250
250
249
248
247
247
245
245
245
243
243
243
242
242
241
241
240
240
240
239
238
238
238
238
237
237
236
236
236
235
235
235
235
234
234
234
233
233
232
230
230
230
230
229
228
227
227
226
226
225
225
224
224
224
224
222
222
222
222
221
220
220
220
220
219
219
219
218
217
217
216
216
215
215
215
215
215
214
214
214
213
213
213
213
213
213
213
212
211
210
210
210
209
209
209
209
208
208
208
207
207
207
207
206
206
206
206
205
205
204
204
203
203
203
203
203
202
202
202
201
201
200
200
200
199
198
198
198
197
197
197
197
196
196
194
194
194
193
193
193
192
192
191
191
191
190
190
189
188
188
188
188
188
187
187
187
187
186
185
185
185
184
184
184
183
182
182
181
181
181
180
180
179
179
178
178
177
177
177
177
176
176
176
176
175
172
172
171
171
171
170
170
170
170
169
169
168
168
168
167
167
166
166
164
164
164
163
163
162
162
162
162
162
162
161
160
160
159
158
158
157
157
157
157
156
156
155
155
155
152
152
151
151
149
149
149
149
149
149
149
148
148
147
147
146
145
145
145
144
144
144
144
143
141
141
141
140
140
139
138
138
137
136
136
135
134
132
132
131
131
131
131
130
130
129
129
129
129
127
127
126
126
126
126
126
126
125
125
124
124
124
123
122
122
122
121
121
120
120
120
119
119
118
118
118
117
117
117
116
116
115
115
114
114
113
113
113
113
112
112
112
111
111
111
110
109
109
109
108
108
108
107
107
106
106
106
105
105
105
105
104
104
104
104
104
104
103
103
102
102
102
102
102
101
101
101
100
100
100
100
99
99
98
96
96
95
95
95
94
93
92
92
91
91
90
90
89
89
88
87
87
86
86
85
85
85
85
84
84
84
84
84
84
83
83
83
83
83
83
82
82
82
81
80
80
80
80
80
80
78
78
77
77
77
77
76
75
75
74
74
73
73
72
72
72
71
71
70
70
69
69
68
68
68
67
66
66
66
66
66
65
65
65
65
65
63
63
62
62
62
62
61
60
60
59
58
57
55
55
55
55
53
53
53
53
53
52
51
51
51
51
50
50
50
